sat
(
  (define-fun e1 () Int
    5)
  (define-fun total_duration () Int
    2)
  (define-fun e2 () Int
    9)
  (define-fun e3 () Int
    2)
  (define-fun d2 () Int
    4)
  (define-fun d1 () Int
    3)
  (define-fun s2 () Int
    5)
  (define-fun d3 () Int
    2)
  (define-fun duration_threshold () Int
    4)
  (define-fun s1 () Int
    2)
  (define-fun s3 () Int
    0)
)
